(set-info :source |printed by MathSAT|)
(declare-fun |!{$(in_main#0)<j>}| () Int)
(declare-fun |!{$(in_main#0)<j>}.next| () Int)
(declare-fun |!{$(in_main#0)<k>}| () Int)
(declare-fun |!{$(in_main#0)<k>}.next| () Int)
(declare-fun |!{$(in_main#0)<n>}| () Int)
(declare-fun |!{$(in_main#0)<n>}.next| () Int)
(declare-fun |!{$(in_main#0)<a.1>}| () (Array Int Int))
(declare-fun |!{$(in_main#0)<a.1>}.next| () (Array Int Int))
(declare-fun |!{$(in_main#0)<i>}| () Int)
(declare-fun |!{$(in_main#0)<i>}.next| () Int)
(declare-fun |!{$(in_main#0)<$(in___VERIFIER_nondet_int#0)<h#<__VERIFIER_nondet_int.return>>>}| () Int)
(declare-fun |!{$(in_main#0)<$(in___VERIFIER_nondet_int#2)<h#<__VERIFIER_nondet_int.return>>>}| () Int)
(declare-fun |!{$(in_main#0)<$(in___VERIFIER_nondet_int#4)<h#<__VERIFIER_nondet_int.return>>>}| () Int)
(declare-fun !pc () Int)
(declare-fun !pc.next () Int)
(declare-fun |%{$(in_main#0)<k>}#1| () Int)
(declare-fun |%{$(in_main#0)<a.1>}#1| () (Array Int Int))
(define-fun .def_38 () Int (! !pc :next !pc.next))
(define-fun .def_41 () Bool (! (= .def_38 2) :init true))
(define-fun .def_167 () Bool (= .def_38 63))
(define-fun .def_125 () Bool (= !pc.next 99))
(define-fun .def_170 () Bool (and .def_125 .def_167))
(define-fun .def_161 () Bool (= |!{$(in_main#0)<k>}.next| 1))
(define-fun .def_8 () Int (! |!{$(in_main#0)<j>}| :next |!{$(in_main#0)<j>}.next|))
(define-fun .def_94 () Bool (= .def_8 |!{$(in_main#0)<j>}.next|))
(define-fun .def_162 () Bool (and .def_94 .def_161))
(define-fun .def_12 () Int (! |!{$(in_main#0)<n>}| :next |!{$(in_main#0)<n>}.next|))
(define-fun .def_98 () Bool (= .def_12 |!{$(in_main#0)<n>}.next|))
(define-fun .def_163 () Bool (and .def_98 .def_162))
(define-fun .def_14 () (Array Int Int) (! |!{$(in_main#0)<a.1>}| :next |!{$(in_main#0)<a.1>}.next|))
(define-fun .def_100 () Bool (= .def_14 |!{$(in_main#0)<a.1>}.next|))
(define-fun .def_164 () Bool (and .def_100 .def_163))
(define-fun .def_16 () Int (! |!{$(in_main#0)<i>}| :next |!{$(in_main#0)<i>}.next|))
(define-fun .def_102 () Bool (= .def_16 |!{$(in_main#0)<i>}.next|))
(define-fun .def_165 () Bool (and .def_102 .def_164))
(define-fun .def_136 () Bool (<= .def_12 .def_16))
(define-fun .def_166 () Bool (and .def_136 .def_165))
(define-fun .def_171 () Bool (and .def_166 .def_170))
(define-fun .def_76 () Bool (= !pc.next 63))
(define-fun .def_168 () Bool (and .def_76 .def_167))
(define-fun .def_155 () Int (* (- 1) |!{$(in_main#0)<i>}.next|))
(define-fun .def_156 () Int (+ .def_16 .def_155))
(define-fun .def_157 () Bool (= .def_156 (- 1)))
(define-fun .def_146 () Int (+ .def_16 |!{$(in_main#0)<$(in___VERIFIER_nondet_int#4)<h#<__VERIFIER_nondet_int.return>>>}|))
(define-fun .def_147 () Int (+ .def_8 .def_146))
(define-fun .def_148 () (Array Int Int) (store .def_14 .def_16 .def_147))
(define-fun .def_153 () Bool (= |!{$(in_main#0)<a.1>}.next| .def_148))
(define-fun .def_150 () Bool (= |!{$(in_main#0)<k>}.next| |!{$(in_main#0)<$(in___VERIFIER_nondet_int#4)<h#<__VERIFIER_nondet_int.return>>>}|))
(define-fun .def_151 () Bool (and .def_94 .def_150))
(define-fun .def_152 () Bool (and .def_98 .def_151))
(define-fun .def_154 () Bool (and .def_152 .def_153))
(define-fun .def_158 () Bool (and .def_154 .def_157))
(define-fun .def_138 () Bool (<= |!{$(in_main#0)<$(in___VERIFIER_nondet_int#4)<h#<__VERIFIER_nondet_int.return>>>}| 0))
(define-fun .def_139 () Bool (not .def_138))
(define-fun .def_140 () Int (ite .def_139 1 0))
(define-fun .def_141 () Bool (= .def_140 0))
(define-fun .def_142 () Bool (not .def_141))
(define-fun .def_159 () Bool (and .def_142 .def_158))
(define-fun .def_137 () Bool (not .def_136))
(define-fun .def_160 () Bool (and .def_137 .def_159))
(define-fun .def_169 () Bool (and .def_160 .def_168))
(define-fun .def_172 () Bool (or .def_169 .def_171))
(define-fun .def_129 () Bool (= !pc.next 0))
(define-fun .def_120 () Bool (= .def_38 99))
(define-fun .def_130 () Bool (and .def_120 .def_129))
(define-fun .def_10 () Int (! |!{$(in_main#0)<k>}| :next |!{$(in_main#0)<k>}.next|))
(define-fun .def_79 () Bool (<= .def_12 .def_10))
(define-fun .def_114 () Bool (and .def_79 .def_94))
(define-fun .def_96 () Bool (= .def_10 |!{$(in_main#0)<k>}.next|))
(define-fun .def_115 () Bool (and .def_96 .def_114))
(define-fun .def_116 () Bool (and .def_98 .def_115))
(define-fun .def_117 () Bool (and .def_100 .def_116))
(define-fun .def_118 () Bool (and .def_102 .def_117))
(define-fun .def_131 () Bool (and .def_118 .def_130))
(define-fun .def_126 () Bool (and .def_120 .def_125))
(define-fun .def_105 () Int (* (- 1) |!{$(in_main#0)<k>}.next|))
(define-fun .def_106 () Int (+ .def_10 .def_105))
(define-fun .def_107 () Bool (= .def_106 (- 1)))
(define-fun .def_108 () Bool (and .def_94 .def_107))
(define-fun .def_109 () Bool (and .def_98 .def_108))
(define-fun .def_110 () Bool (and .def_100 .def_109))
(define-fun .def_111 () Bool (and .def_102 .def_110))
(define-fun .def_81 () Int (select .def_14 .def_10))
(define-fun .def_85 () Int (* (- 1) .def_81))
(define-fun .def_86 () Int (+ .def_10 .def_85))
(define-fun .def_87 () Bool (<= .def_86 (- 2)))
(define-fun .def_88 () Int (ite .def_87 1 0))
(define-fun .def_89 () Bool (= .def_88 0))
(define-fun .def_90 () Bool (not .def_89))
(define-fun .def_112 () Bool (and .def_90 .def_111))
(define-fun .def_80 () Bool (not .def_79))
(define-fun .def_113 () Bool (and .def_80 .def_112))
(define-fun .def_127 () Bool (and .def_113 .def_126))
(define-fun .def_122 () Bool (= !pc.next 119))
(define-fun .def_123 () Bool (and .def_120 .def_122))
(define-fun .def_95 () Bool (and .def_89 .def_94))
(define-fun .def_97 () Bool (and .def_95 .def_96))
(define-fun .def_99 () Bool (and .def_97 .def_98))
(define-fun .def_101 () Bool (and .def_99 .def_100))
(define-fun .def_103 () Bool (and .def_101 .def_102))
(define-fun .def_104 () Bool (and .def_80 .def_103))
(define-fun .def_124 () Bool (and .def_104 .def_123))
(define-fun .def_128 () Bool (or .def_124 .def_127))
(define-fun .def_132 () Bool (or .def_128 .def_131))
(define-fun .def_77 () Bool (and .def_41 .def_76))
(define-fun .def_71 () Bool (= |!{$(in_main#0)<i>}.next| 1))
(define-fun .def_69 () Bool (= |!{$(in_main#0)<a.1>}.next| |%{$(in_main#0)<a.1>}#1|))
(define-fun .def_67 () Bool (= |!{$(in_main#0)<n>}.next| |!{$(in_main#0)<$(in___VERIFIER_nondet_int#0)<h#<__VERIFIER_nondet_int.return>>>}|))
(define-fun .def_65 () Bool (= |!{$(in_main#0)<k>}.next| |%{$(in_main#0)<k>}#1|))
(define-fun .def_64 () Bool (= |!{$(in_main#0)<j>}.next| |!{$(in_main#0)<$(in___VERIFIER_nondet_int#2)<h#<__VERIFIER_nondet_int.return>>>}|))
(define-fun .def_66 () Bool (and .def_64 .def_65))
(define-fun .def_68 () Bool (and .def_66 .def_67))
(define-fun .def_70 () Bool (and .def_68 .def_69))
(define-fun .def_72 () Bool (and .def_70 .def_71))
(define-fun .def_58 () Bool (<= |!{$(in_main#0)<$(in___VERIFIER_nondet_int#2)<h#<__VERIFIER_nondet_int.return>>>}| 0))
(define-fun .def_59 () Bool (not .def_58))
(define-fun .def_60 () Int (ite .def_59 1 0))
(define-fun .def_61 () Bool (= .def_60 0))
(define-fun .def_62 () Bool (not .def_61))
(define-fun .def_73 () Bool (and .def_62 .def_72))
(define-fun .def_53 () Bool (<= |!{$(in_main#0)<$(in___VERIFIER_nondet_int#0)<h#<__VERIFIER_nondet_int.return>>>}| 0))
(define-fun .def_54 () Bool (not .def_53))
(define-fun .def_55 () Int (ite .def_54 1 0))
(define-fun .def_56 () Bool (= .def_55 0))
(define-fun .def_57 () Bool (not .def_56))
(define-fun .def_74 () Bool (and .def_57 .def_73))
(define-fun .def_78 () Bool (and .def_74 .def_77))
(define-fun .def_133 () Bool (or .def_78 .def_132))
(define-fun .def_173 () Bool (! (or .def_133 .def_172) :trans true))
(define-fun .def_134 () Bool (= .def_38 119))
(define-fun .def_174 () Bool (! (not .def_134) :invar-property 0 :invar-property-name ||))
(assert true)
